ALGO = Normal
EDIFF = 1e-06
EDIFFG = -0.01
ENCUT = 600
IBRION = 2
ICHARG = 2
ISIF = 3
ISMEAR = 1
ISTART = 0
ISYM = 0
KSPACING = 0.2
LCHARG = False
LWAVE = False
NELM = 100
NELMIN = 6
NPAR = 8
NSW = 200
POTIM = 0.1
PREC = Accurate
PSTRESS = 0
SIGMA = 0.2
SYSTEM = Opt
