System = fcc
PREC = Accurate
ENCUT = 650.0
LREAL = .FALSE.
ISMEAR = 1
SIGMA   =  0.22
EDIFF = 1E-7
IBRION = 8
IALGO = 38
LWAVE = .FALSE.
LCHARG = .FALSE.
ADDGRID = .TRUE.
KSPACING = 0.1
NSW=1
